(set-logic QF_LIA)
(declare-fun x0 () Int)
(declare-fun x1 () Int)
(declare-fun x2 () Int)
(declare-fun x3 () Int)
(declare-fun x4 () Int)
(declare-fun x5 () Int)
(declare-fun x6 () Int)
(declare-fun x7 () Int)
(declare-fun x8 () Int)
(declare-fun x9 () Int)
(declare-fun A0 () Bool)
(declare-fun A1 () Bool)
(declare-fun A2 () Bool)
(declare-fun A3 () Bool)
(declare-fun A4 () Bool)
(declare-fun A5 () Bool)
(declare-fun A6 () Bool)
(declare-fun A7 () Bool)
(declare-fun A8 () Bool)
(declare-fun A9 () Bool)
(assert (let ((.def_0 (not A9))) (let ((.def_1 (* 1 x6))) (let ((.def_2 (< .def_1 (- 1)))) (let ((.def_3 (not .def_2))) (let ((.def_4 (and .def_3 .def_0))) (let ((.def_5 (* (- 1) x9))) (let ((.def_6 (< .def_5 (- 1)))) (let ((.def_7 (not .def_6))) (let ((.def_8 (or .def_7 A4))) (let ((.def_9 (not .def_8))) (let ((.def_10 (or .def_9 .def_4))) (let ((.def_11 (* 1 x8))) (let ((.def_12 (* (- 1) x5))) (let ((.def_13 (+ .def_12 .def_11))) (let ((.def_14 (< .def_13 (- 1)))) (let ((.def_15 (not .def_14))) (let ((.def_16 (or .def_0 .def_15))) (let ((.def_17 (* (- 1) x1))) (let ((.def_18 (* (- 1) x6))) (let ((.def_19 (+ .def_18 .def_17))) (let ((.def_20 (< .def_19 1))) (let ((.def_21 (not .def_20))) (let ((.def_22 (* 1 x4))) (let ((.def_23 (* 1 x9))) (let ((.def_24 (+ .def_23 .def_22))) (let ((.def_25 (< .def_24 (- 1)))) (let ((.def_26 (or .def_25 .def_21))) (let ((.def_27 (not .def_26))) (let ((.def_28 (or .def_27 .def_16))) (let ((.def_29 (not .def_28))) (let ((.def_30 (= .def_29 .def_10))) (let ((.def_31 (not .def_30))) (let ((.def_32 (* (- 1) x4))) (let ((.def_33 (* 1 x0))) (let ((.def_34 (+ .def_33 .def_32))) (let ((.def_35 (< .def_34 (- 1)))) (let ((.def_36 (or A1 .def_35))) (let ((.def_37 (not .def_36))) (let ((.def_38 (not A3))) (let ((.def_39 (= .def_38 .def_38))) (let ((.def_40 (not .def_39))) (let ((.def_41 (and .def_40 .def_37))) (let ((.def_42 (not .def_41))) (let ((.def_43 (not A5))) (let ((.def_44 (+ .def_32 .def_1))) (let ((.def_45 (< .def_44 (- 1)))) (let ((.def_46 (not .def_45))) (let ((.def_47 (or .def_46 .def_43))) (let ((.def_48 (* (- 1) x3))) (let ((.def_49 (+ .def_17 .def_48))) (let ((.def_50 (< .def_49 (- 1)))) (let ((.def_51 (and .def_50 .def_43))) (let ((.def_52 (or .def_51 .def_47))) (let ((.def_53 (= .def_52 .def_42))) (let ((.def_54 (or .def_53 .def_31))) (let ((.def_55 (not .def_54))) (let ((.def_56 (or A7 A2))) (let ((.def_57 (and A9 A6))) (let ((.def_58 (= .def_57 .def_56))) (let ((.def_59 (not .def_58))) (let ((.def_60 (* 1 x2))) (let ((.def_61 (* 1 x3))) (let ((.def_62 (+ .def_61 .def_60))) (let ((.def_63 (< .def_62 (- 1)))) (let ((.def_64 (* (- 1) x8))) (let ((.def_65 (+ .def_64 .def_60))) (let ((.def_66 (< .def_65 1))) (let ((.def_67 (not .def_66))) (let ((.def_68 (or .def_67 .def_63))) (let ((.def_69 (not A4))) (let ((.def_70 (and .def_43 .def_69))) (let ((.def_71 (and .def_70 .def_68))) (let ((.def_72 (and .def_71 .def_59))) (let ((.def_73 (not .def_72))) (let ((.def_74 (+ .def_17 .def_32))) (let ((.def_75 (< .def_74 (- 1)))) (let ((.def_76 (and A8 .def_75))) (let ((.def_77 (not .def_76))) (let ((.def_78 (or A4 A7))) (let ((.def_79 (not .def_78))) (let ((.def_80 (and .def_79 .def_77))) (let ((.def_81 (not A1))) (let ((.def_82 (* 1 x5))) (let ((.def_83 (+ .def_60 .def_82))) (let ((.def_84 (< .def_83 1))) (let ((.def_85 (not .def_84))) (let ((.def_86 (or .def_85 .def_81))) (let ((.def_87 (< .def_32 (- 1)))) (let ((.def_88 (not .def_87))) (let ((.def_89 (not A8))) (let ((.def_90 (or .def_89 .def_88))) (let ((.def_91 (not .def_90))) (let ((.def_92 (or .def_91 .def_86))) (let ((.def_93 (or .def_92 .def_80))) (let ((.def_94 (and .def_93 .def_73))) (let ((.def_95 (and .def_94 .def_55))) (let ((.def_96 (or A1 A8))) (let ((.def_97 (= A2 .def_0))) (let ((.def_98 (or .def_97 .def_96))) (let ((.def_99 (not .def_98))) (let ((.def_100 (< .def_22 (- 1)))) (let ((.def_101 (not .def_100))) (let ((.def_102 (or .def_101 .def_81))) (let ((.def_103 (* 1 x1))) (let ((.def_104 (+ .def_103 .def_18))) (let ((.def_105 (< .def_104 (- 1)))) (let ((.def_106 (+ .def_64 .def_1))) (let ((.def_107 (< .def_106 (- 1)))) (let ((.def_108 (or .def_107 .def_105))) (let ((.def_109 (not .def_108))) (let ((.def_110 (and .def_109 .def_102))) (let ((.def_111 (not .def_110))) (let ((.def_112 (and .def_111 .def_99))) (let ((.def_113 (< .def_11 1))) (let ((.def_114 (not .def_113))) (let ((.def_115 (and .def_114 A6))) (let ((.def_116 (not .def_115))) (let ((.def_117 (+ .def_32 .def_5))) (let ((.def_118 (< .def_117 (- 1)))) (let ((.def_119 (not .def_118))) (let ((.def_120 (and .def_119 .def_0))) (let ((.def_121 (not .def_120))) (let ((.def_122 (and .def_121 .def_116))) (let ((.def_123 (+ .def_23 .def_82))) (let ((.def_124 (< .def_123 (- 1)))) (let ((.def_125 (not .def_124))) (let ((.def_126 (or .def_125 A5))) (let ((.def_127 (+ .def_64 .def_18))) (let ((.def_128 (< .def_127 1))) (let ((.def_129 (not .def_128))) (let ((.def_130 (= .def_129 A4))) (let ((.def_131 (not .def_130))) (let ((.def_132 (and .def_131 .def_126))) (let ((.def_133 (not .def_132))) (let ((.def_134 (and .def_133 .def_122))) (let ((.def_135 (not .def_134))) (let ((.def_136 (or .def_135 .def_112))) (let ((.def_137 (not .def_136))) (let ((.def_138 (* 1 x7))) (let ((.def_139 (< .def_138 1))) (let ((.def_140 (not .def_139))) (let ((.def_141 (not A2))) (let ((.def_142 (or .def_141 .def_140))) (let ((.def_143 (not .def_142))) (let ((.def_144 (< .def_11 (- 1)))) (let ((.def_145 (and .def_89 .def_144))) (let ((.def_146 (or .def_145 .def_143))) (let ((.def_147 (not A0))) (let ((.def_148 (< .def_1 1))) (let ((.def_149 (and .def_148 .def_147))) (let ((.def_150 (not .def_149))) (let ((.def_151 (* (- 1) x0))) (let ((.def_152 (+ .def_151 .def_5))) (let ((.def_153 (< .def_152 (- 1)))) (let ((.def_154 (not .def_153))) (let ((.def_155 (= .def_69 .def_154))) (let ((.def_156 (not .def_155))) (let ((.def_157 (and .def_156 .def_150))) (let ((.def_158 (and .def_157 .def_146))) (let ((.def_159 (not .def_158))) (let ((.def_160 (and A1 A2))) (let ((.def_161 (* (- 1) x2))) (let ((.def_162 (< .def_161 1))) (let ((.def_163 (+ .def_33 .def_103))) (let ((.def_164 (< .def_163 1))) (let ((.def_165 (or .def_164 .def_162))) (let ((.def_166 (not .def_165))) (let ((.def_167 (or .def_166 .def_160))) (let ((.def_168 (not .def_167))) (let ((.def_169 (+ .def_18 .def_151))) (let ((.def_170 (< .def_169 (- 1)))) (let ((.def_171 (not .def_170))) (let ((.def_172 (< .def_151 (- 1)))) (let ((.def_173 (and .def_172 .def_171))) (let ((.def_174 (not .def_173))) (let ((.def_175 (< .def_64 1))) (let ((.def_176 (not .def_175))) (let ((.def_177 (or A6 .def_176))) (let ((.def_178 (= .def_177 .def_174))) (let ((.def_179 (not .def_178))) (let ((.def_180 (and .def_179 .def_168))) (let ((.def_181 (or .def_180 .def_159))) (let ((.def_182 (= .def_181 .def_137))) (let ((.def_183 (not .def_182))) (let ((.def_184 (or .def_183 .def_95))) (let ((.def_185 (not .def_184))) (let ((.def_186 (and .def_114 .def_69))) (let ((.def_187 (not .def_186))) (let ((.def_188 (+ .def_60 .def_61))) (let ((.def_189 (< .def_188 1))) (let ((.def_190 (and .def_189 .def_38))) (let ((.def_191 (or .def_190 .def_187))) (let ((.def_192 (< .def_33 (- 1)))) (let ((.def_193 (+ .def_18 .def_103))) (let ((.def_194 (< .def_193 1))) (let ((.def_195 (not .def_194))) (let ((.def_196 (= .def_195 .def_192))) (let ((.def_197 (not .def_196))) (let ((.def_198 (* (- 1) x7))) (let ((.def_199 (+ .def_60 .def_198))) (let ((.def_200 (< .def_199 (- 1)))) (let ((.def_201 (not .def_200))) (let ((.def_202 (< .def_32 1))) (let ((.def_203 (not .def_202))) (let ((.def_204 (or .def_203 .def_201))) (let ((.def_205 (not .def_204))) (let ((.def_206 (or .def_205 .def_197))) (let ((.def_207 (not .def_206))) (let ((.def_208 (and .def_207 .def_191))) (let ((.def_209 (or .def_203 A8))) (let ((.def_210 (not .def_209))) (let ((.def_211 (not A7))) (let ((.def_212 (or .def_141 .def_211))) (let ((.def_213 (not .def_212))) (let ((.def_214 (or .def_213 .def_210))) (let ((.def_215 (+ .def_22 .def_60))) (let ((.def_216 (< .def_215 (- 1)))) (let ((.def_217 (not .def_216))) (let ((.def_218 (or .def_217 .def_144))) (let ((.def_219 (not .def_218))) (let ((.def_220 (< .def_60 (- 1)))) (let ((.def_221 (and .def_220 A6))) (let ((.def_222 (and .def_221 .def_219))) (let ((.def_223 (not .def_222))) (let ((.def_224 (and .def_223 .def_214))) (let ((.def_225 (or .def_224 .def_208))) (let ((.def_226 (not .def_225))) (let ((.def_227 (+ .def_161 .def_103))) (let ((.def_228 (< .def_227 (- 1)))) (let ((.def_229 (not .def_228))) (let ((.def_230 (or .def_229 .def_38))) (let ((.def_231 (< .def_161 (- 1)))) (let ((.def_232 (or A3 .def_231))) (let ((.def_233 (= .def_232 .def_230))) (let ((.def_234 (and .def_147 A6))) (let ((.def_235 (not .def_234))) (let ((.def_236 (+ .def_17 .def_82))) (let ((.def_237 (< .def_236 (- 1)))) (let ((.def_238 (not .def_237))) (let ((.def_239 (< .def_17 (- 1)))) (let ((.def_240 (not .def_239))) (let ((.def_241 (or .def_240 .def_238))) (let ((.def_242 (not .def_241))) (let ((.def_243 (or .def_242 .def_235))) (let ((.def_244 (= .def_243 .def_233))) (let ((.def_245 (not .def_244))) (let ((.def_246 (+ .def_138 .def_60))) (let ((.def_247 (< .def_246 (- 1)))) (let ((.def_248 (not .def_247))) (let ((.def_249 (and .def_147 .def_248))) (let ((.def_250 (not .def_249))) (let ((.def_251 (not A6))) (let ((.def_252 (and A0 .def_251))) (let ((.def_253 (not .def_252))) (let ((.def_254 (and .def_253 .def_250))) (let ((.def_255 (< .def_82 1))) (let ((.def_256 (or .def_255 .def_211))) (let ((.def_257 (< .def_151 1))) (let ((.def_258 (or .def_257 .def_7))) (let ((.def_259 (or .def_258 .def_256))) (let ((.def_260 (and .def_259 .def_254))) (let ((.def_261 (and .def_260 .def_245))) (let ((.def_262 (not .def_261))) (let ((.def_263 (and .def_262 .def_226))) (let ((.def_264 (+ .def_138 .def_33))) (let ((.def_265 (< .def_264 (- 1)))) (let ((.def_266 (not .def_265))) (let ((.def_267 (or .def_266 A5))) (let ((.def_268 (or .def_147 .def_0))) (let ((.def_269 (or .def_268 .def_267))) (let ((.def_270 (not .def_269))) (let ((.def_271 (< .def_188 (- 1)))) (let ((.def_272 (and .def_271 .def_148))) (let ((.def_273 (not .def_272))) (let ((.def_274 (+ .def_22 .def_103))) (let ((.def_275 (< .def_274 1))) (let ((.def_276 (+ .def_11 .def_138))) (let ((.def_277 (< .def_276 (- 1)))) (let ((.def_278 (not .def_277))) (let ((.def_279 (= .def_278 .def_275))) (let ((.def_280 (not .def_279))) (let ((.def_281 (and .def_280 .def_273))) (let ((.def_282 (and .def_281 .def_270))) (let ((.def_283 (and .def_7 .def_0))) (let ((.def_284 (not .def_283))) (let ((.def_285 (< .def_103 (- 1)))) (let ((.def_286 (not .def_285))) (let ((.def_287 (and A5 .def_286))) (let ((.def_288 (not .def_287))) (let ((.def_289 (and .def_288 .def_284))) (let ((.def_290 (and A8 .def_139))) (let ((.def_291 (not .def_275))) (let ((.def_292 (or .def_291 A3))) (let ((.def_293 (and .def_292 .def_290))) (let ((.def_294 (not .def_293))) (let ((.def_295 (or .def_294 .def_289))) (let ((.def_296 (not .def_295))) (let ((.def_297 (and .def_296 .def_282))) (let ((.def_298 (not .def_297))) (let ((.def_299 (or .def_6 A4))) (let ((.def_300 (and .def_3 A4))) (let ((.def_301 (and .def_300 .def_299))) (let ((.def_302 (< .def_123 1))) (let ((.def_303 (or .def_302 .def_251))) (let ((.def_304 (not .def_303))) (let ((.def_305 (+ .def_33 .def_1))) (let ((.def_306 (< .def_305 1))) (let ((.def_307 (not .def_306))) (let ((.def_308 (or .def_307 A7))) (let ((.def_309 (and .def_308 .def_304))) (let ((.def_310 (not .def_309))) (let ((.def_311 (and .def_310 .def_301))) (let ((.def_312 (not .def_311))) (let ((.def_313 (and .def_192 .def_81))) (let ((.def_314 (not .def_313))) (let ((.def_315 (not .def_162))) (let ((.def_316 (or .def_315 A8))) (let ((.def_317 (not .def_316))) (let ((.def_318 (or .def_317 .def_314))) (let ((.def_319 (not .def_318))) (let ((.def_320 (or A2 .def_203))) (let ((.def_321 (+ .def_32 .def_12))) (let ((.def_322 (< .def_321 (- 1)))) (let ((.def_323 (or .def_322 A4))) (let ((.def_324 (and .def_323 .def_320))) (let ((.def_325 (or .def_324 .def_319))) (let ((.def_326 (not .def_325))) (let ((.def_327 (or .def_326 .def_312))) (let ((.def_328 (not .def_327))) (let ((.def_329 (and .def_328 .def_298))) (let ((.def_330 (not .def_329))) (let ((.def_331 (or .def_330 .def_263))) (let ((.def_332 (not .def_331))) (let ((.def_333 (and .def_332 .def_185))) (let ((.def_334 (+ .def_32 .def_18))) (let ((.def_335 (< .def_334 1))) (let ((.def_336 (or .def_335 .def_38))) (let ((.def_337 (not .def_336))) (let ((.def_338 (+ .def_5 .def_103))) (let ((.def_339 (< .def_338 1))) (let ((.def_340 (and .def_339 A4))) (let ((.def_341 (not .def_340))) (let ((.def_342 (and .def_341 .def_337))) (let ((.def_343 (or A2 .def_101))) (let ((.def_344 (< .def_5 1))) (let ((.def_345 (not .def_344))) (let ((.def_346 (or A1 .def_345))) (let ((.def_347 (not .def_346))) (let ((.def_348 (or .def_347 .def_343))) (let ((.def_349 (and .def_348 .def_342))) (let ((.def_350 (not .def_322))) (let ((.def_351 (+ .def_198 .def_48))) (let ((.def_352 (< .def_351 (- 1)))) (let ((.def_353 (not .def_352))) (let ((.def_354 (or .def_353 .def_350))) (let ((.def_355 (+ .def_61 .def_138))) (let ((.def_356 (< .def_355 1))) (let ((.def_357 (+ .def_18 .def_23))) (let ((.def_358 (< .def_357 (- 1)))) (let ((.def_359 (and .def_358 .def_356))) (let ((.def_360 (and .def_359 .def_354))) (let ((.def_361 (not .def_360))) (let ((.def_362 (< .def_61 1))) (let ((.def_363 (not .def_362))) (let ((.def_364 (< .def_23 (- 1)))) (let ((.def_365 (not .def_364))) (let ((.def_366 (and .def_365 .def_363))) (let ((.def_367 (and .def_203 A7))) (let ((.def_368 (not .def_367))) (let ((.def_369 (or .def_368 .def_366))) (let ((.def_370 (not .def_369))) (let ((.def_371 (and .def_370 .def_361))) (let ((.def_372 (or .def_371 .def_349))) (let ((.def_373 (< .def_18 1))) (let ((.def_374 (not .def_373))) (let ((.def_375 (and A3 .def_374))) (let ((.def_376 (+ .def_1 .def_17))) (let ((.def_377 (< .def_376 1))) (let ((.def_378 (not .def_377))) (let ((.def_379 (+ .def_22 .def_17))) (let ((.def_380 (< .def_379 1))) (let ((.def_381 (or .def_380 .def_378))) (let ((.def_382 (not .def_381))) (let ((.def_383 (and .def_382 .def_375))) (let ((.def_384 (not .def_383))) (let ((.def_385 (or A1 A9))) (let ((.def_386 (not .def_385))) (let ((.def_387 (< .def_23 1))) (let ((.def_388 (= .def_387 .def_89))) (let ((.def_389 (not .def_388))) (let ((.def_390 (and .def_389 .def_386))) (let ((.def_391 (not .def_390))) (let ((.def_392 (= .def_391 .def_384))) (let ((.def_393 (< .def_48 1))) (let ((.def_394 (not .def_393))) (let ((.def_395 (or A4 .def_394))) (let ((.def_396 (not .def_395))) (let ((.def_397 (and .def_81 A0))) (let ((.def_398 (not .def_397))) (let ((.def_399 (and .def_398 .def_396))) (let ((.def_400 (+ .def_1 .def_33))) (let ((.def_401 (< .def_400 1))) (let ((.def_402 (and A7 .def_401))) (let ((.def_403 (not .def_402))) (let ((.def_404 (and A4 A0))) (let ((.def_405 (= .def_404 .def_403))) (let ((.def_406 (not .def_405))) (let ((.def_407 (and .def_406 .def_399))) (let ((.def_408 (not .def_407))) (let ((.def_409 (and .def_408 .def_392))) (let ((.def_410 (not .def_409))) (let ((.def_411 (or .def_410 .def_372))) (let ((.def_412 (not .def_411))) (let ((.def_413 (+ .def_18 .def_33))) (let ((.def_414 (< .def_413 1))) (let ((.def_415 (or .def_414 .def_38))) (let ((.def_416 (or A0 .def_89))) (let ((.def_417 (not .def_416))) (let ((.def_418 (= .def_417 .def_415))) (let ((.def_419 (+ .def_60 .def_32))) (let ((.def_420 (< .def_419 1))) (let ((.def_421 (not .def_420))) (let ((.def_422 (+ .def_64 .def_5))) (let ((.def_423 (< .def_422 (- 1)))) (let ((.def_424 (not .def_423))) (let ((.def_425 (or .def_424 .def_421))) (let ((.def_426 (not .def_425))) (let ((.def_427 (+ .def_33 .def_12))) (let ((.def_428 (< .def_427 (- 1)))) (let ((.def_429 (or .def_428 A2))) (let ((.def_430 (not .def_429))) (let ((.def_431 (and .def_430 .def_426))) (let ((.def_432 (not .def_431))) (let ((.def_433 (= .def_432 .def_418))) (let ((.def_434 (+ .def_23 .def_17))) (let ((.def_435 (< .def_434 1))) (let ((.def_436 (or .def_435 .def_38))) (let ((.def_437 (not .def_436))) (let ((.def_438 (and A7 .def_373))) (let ((.def_439 (not .def_438))) (let ((.def_440 (or .def_439 .def_437))) (let ((.def_441 (or A5 .def_141))) (let ((.def_442 (not .def_441))) (let ((.def_443 (+ .def_33 .def_18))) (let ((.def_444 (< .def_443 1))) (let ((.def_445 (and .def_444 A8))) (let ((.def_446 (not .def_445))) (let ((.def_447 (and .def_446 .def_442))) (let ((.def_448 (not .def_447))) (let ((.def_449 (or .def_448 .def_440))) (let ((.def_450 (or .def_449 .def_433))) (let ((.def_451 (and .def_100 A9))) (let ((.def_452 (+ .def_23 .def_60))) (let ((.def_453 (< .def_452 1))) (let ((.def_454 (not .def_453))) (let ((.def_455 (or .def_454 A7))) (let ((.def_456 (and .def_455 .def_451))) (let ((.def_457 (+ .def_82 .def_60))) (let ((.def_458 (< .def_457 1))) (let ((.def_459 (not .def_458))) (let ((.def_460 (or .def_257 .def_459))) (let ((.def_461 (+ .def_198 .def_12))) (let ((.def_462 (< .def_461 (- 1)))) (let ((.def_463 (< .def_61 (- 1)))) (let ((.def_464 (not .def_463))) (let ((.def_465 (and .def_464 .def_462))) (let ((.def_466 (not .def_465))) (let ((.def_467 (and .def_466 .def_460))) (let ((.def_468 (and .def_467 .def_456))) (let ((.def_469 (+ .def_22 .def_82))) (let ((.def_470 (< .def_469 (- 1)))) (let ((.def_471 (and .def_147 .def_470))) (let ((.def_472 (not .def_471))) (let ((.def_473 (or .def_140 A4))) (let ((.def_474 (not .def_473))) (let ((.def_475 (and .def_474 .def_472))) (let ((.def_476 (not .def_475))) (let ((.def_477 (and A6 .def_364))) (let ((.def_478 (not .def_477))) (let ((.def_479 (+ .def_11 .def_61))) (let ((.def_480 (< .def_479 (- 1)))) (let ((.def_481 (or .def_480 A8))) (let ((.def_482 (and .def_481 .def_478))) (let ((.def_483 (and .def_482 .def_476))) (let ((.def_484 (not .def_483))) (let ((.def_485 (and .def_484 .def_468))) (let ((.def_486 (= .def_485 .def_450))) (let ((.def_487 (or .def_486 .def_412))) (let ((.def_488 (not .def_487))) (let ((.def_489 (+ .def_12 .def_17))) (let ((.def_490 (< .def_489 (- 1)))) (let ((.def_491 (not .def_490))) (let ((.def_492 (and A9 .def_491))) (let ((.def_493 (not .def_492))) (let ((.def_494 (< .def_103 1))) (let ((.def_495 (or .def_494 .def_203))) (let ((.def_496 (not .def_495))) (let ((.def_497 (or .def_496 .def_493))) (let ((.def_498 (not .def_497))) (let ((.def_499 (or .def_463 A3))) (let ((.def_500 (+ .def_1 .def_103))) (let ((.def_501 (< .def_500 (- 1)))) (let ((.def_502 (not .def_501))) (let ((.def_503 (< .def_18 (- 1)))) (let ((.def_504 (or .def_503 .def_502))) (let ((.def_505 (not .def_504))) (let ((.def_506 (or .def_505 .def_499))) (let ((.def_507 (or .def_506 .def_498))) (let ((.def_508 (not .def_507))) (let ((.def_509 (+ .def_11 .def_12))) (let ((.def_510 (< .def_509 1))) (let ((.def_511 (not .def_510))) (let ((.def_512 (= .def_511 .def_69))) (let ((.def_513 (not .def_512))) (let ((.def_514 (= A6 A0))) (let ((.def_515 (not .def_514))) (let ((.def_516 (or .def_515 .def_513))) (let ((.def_517 (not .def_516))) (let ((.def_518 (+ .def_22 .def_64))) (let ((.def_519 (< .def_518 (- 1)))) (let ((.def_520 (not .def_519))) (let ((.def_521 (or A4 .def_520))) (let ((.def_522 (not .def_521))) (let ((.def_523 (+ .def_12 .def_22))) (let ((.def_524 (< .def_523 (- 1)))) (let ((.def_525 (not .def_524))) (let ((.def_526 (+ .def_1 .def_61))) (let ((.def_527 (< .def_526 1))) (let ((.def_528 (and .def_527 .def_525))) (let ((.def_529 (not .def_528))) (let ((.def_530 (and .def_529 .def_522))) (let ((.def_531 (and .def_530 .def_517))) (let ((.def_532 (or .def_531 .def_508))) (let ((.def_533 (not .def_532))) (let ((.def_534 (+ .def_18 .def_138))) (let ((.def_535 (< .def_534 (- 1)))) (let ((.def_536 (+ .def_138 .def_12))) (let ((.def_537 (< .def_536 1))) (let ((.def_538 (not .def_537))) (let ((.def_539 (and .def_538 .def_535))) (let ((.def_540 (not .def_539))) (let ((.def_541 (+ .def_82 .def_5))) (let ((.def_542 (< .def_541 1))) (let ((.def_543 (and .def_542 A4))) (let ((.def_544 (not .def_543))) (let ((.def_545 (and .def_544 .def_540))) (let ((.def_546 (not .def_271))) (let ((.def_547 (and .def_546 A3))) (let ((.def_548 (not .def_547))) (let ((.def_549 (+ .def_151 .def_32))) (let ((.def_550 (< .def_549 (- 1)))) (let ((.def_551 (not .def_550))) (let ((.def_552 (and .def_147 .def_551))) (let ((.def_553 (not .def_552))) (let ((.def_554 (or .def_553 .def_548))) (let ((.def_555 (and .def_554 .def_545))) (let ((.def_556 (not .def_555))) (let ((.def_557 (or .def_231 .def_38))) (let ((.def_558 (not .def_255))) (let ((.def_559 (= .def_141 .def_558))) (let ((.def_560 (not .def_559))) (let ((.def_561 (or .def_560 .def_557))) (let ((.def_562 (and A6 A1))) (let ((.def_563 (and .def_172 .def_69))) (let ((.def_564 (not .def_563))) (let ((.def_565 (= .def_564 .def_562))) (let ((.def_566 (and .def_565 .def_561))) (let ((.def_567 (and .def_566 .def_556))) (let ((.def_568 (and .def_567 .def_533))) (let ((.def_569 (or .def_89 .def_81))) (let ((.def_570 (not .def_569))) (let ((.def_571 (+ .def_161 .def_64))) (let ((.def_572 (< .def_571 (- 1)))) (let ((.def_573 (not .def_572))) (let ((.def_574 (and .def_573 A5))) (let ((.def_575 (not .def_574))) (let ((.def_576 (and .def_575 .def_570))) (let ((.def_577 (+ .def_138 .def_64))) (let ((.def_578 (< .def_577 1))) (let ((.def_579 (and .def_578 .def_69))) (let ((.def_580 (not .def_579))) (let ((.def_581 (and .def_364 .def_81))) (let ((.def_582 (or .def_581 .def_580))) (let ((.def_583 (not .def_582))) (let ((.def_584 (or .def_583 .def_576))) (let ((.def_585 (not .def_584))) (let ((.def_586 (+ .def_151 .def_12))) (let ((.def_587 (< .def_586 (- 1)))) (let ((.def_588 (and .def_587 .def_81))) (let ((.def_589 (not .def_588))) (let ((.def_590 (not .def_257))) (let ((.def_591 (or .def_590 .def_192))) (let ((.def_592 (not .def_591))) (let ((.def_593 (or .def_592 .def_589))) (let ((.def_594 (not .def_593))) (let ((.def_595 (and A7 A2))) (let ((.def_596 (+ .def_161 .def_82))) (let ((.def_597 (< .def_596 1))) (let ((.def_598 (not .def_597))) (let ((.def_599 (or A9 .def_598))) (let ((.def_600 (and .def_599 .def_595))) (let ((.def_601 (not .def_600))) (let ((.def_602 (or .def_601 .def_594))) (let ((.def_603 (and .def_602 .def_585))) (let ((.def_604 (not .def_603))) (let ((.def_605 (< .def_479 1))) (let ((.def_606 (not .def_605))) (let ((.def_607 (or A0 .def_606))) (let ((.def_608 (not .def_607))) (let ((.def_609 (or .def_81 A1))) (let ((.def_610 (or .def_609 .def_608))) (let ((.def_611 (not .def_610))) (let ((.def_612 (and A4 .def_147))) (let ((.def_613 (not .def_612))) (let ((.def_614 (and A2 .def_89))) (let ((.def_615 (or .def_614 .def_613))) (let ((.def_616 (not .def_615))) (let ((.def_617 (and .def_616 .def_611))) (let ((.def_618 (not .def_617))) (let ((.def_619 (and .def_38 A7))) (let ((.def_620 (and .def_255 A3))) (let ((.def_621 (not .def_620))) (let ((.def_622 (or .def_621 .def_619))) (let ((.def_623 (and .def_38 .def_89))) (let ((.def_624 (+ .def_61 .def_1))) (let ((.def_625 (< .def_624 (- 1)))) (let ((.def_626 (not .def_625))) (let ((.def_627 (and .def_147 .def_626))) (let ((.def_628 (and .def_627 .def_623))) (let ((.def_629 (not .def_628))) (let ((.def_630 (or .def_629 .def_622))) (let ((.def_631 (not .def_630))) (let ((.def_632 (and .def_631 .def_618))) (let ((.def_633 (not .def_632))) (let ((.def_634 (= .def_633 .def_604))) (let ((.def_635 (not .def_634))) (let ((.def_636 (and .def_635 .def_568))) (let ((.def_637 (and .def_636 .def_488))) (let ((.def_638 (= .def_637 .def_333))) (let ((.def_639 (<= x9 1))) (let ((.def_640 (<= 0 x9))) (let ((.def_641 (<= x8 1))) (let ((.def_642 (<= 0 x8))) (let ((.def_643 (<= x7 1))) (let ((.def_644 (<= 0 x7))) (let ((.def_645 (<= x6 1))) (let ((.def_646 (<= 0 x6))) (let ((.def_647 (<= x5 1))) (let ((.def_648 (<= 0 x5))) (let ((.def_649 (<= x4 1))) (let ((.def_650 (<= 0 x4))) (let ((.def_651 (<= x3 1))) (let ((.def_652 (<= 0 x3))) (let ((.def_653 (<= x2 1))) (let ((.def_654 (<= 0 x2))) (let ((.def_655 (<= x1 1))) (let ((.def_656 (<= 0 x1))) (let ((.def_657 (<= x0 1))) (let ((.def_658 (<= 0 x0))) (let ((.def_659 (and .def_658 .def_657 .def_656 .def_655 .def_654 .def_653 .def_652 .def_651 .def_650 .def_649 .def_648 .def_647 .def_646 .def_645 .def_644 .def_643 .def_642 .def_641 .def_640 .def_639 .def_638))) .def_659)))))))))))))))))))))))))))))))))))))))))))))))))))))))))))))))))))))))))))))))))))))))))))))))))))))))))))))))))))))))))))))))))))))))))))))))))))))))))))))))))))))))))))))))))))))))))))))))))))))))))))))))))))))))))))))))))))))))))))))))))))))))))))))))))))))))))))))))))))))))))))))))))))))))))))))))))))))))))))))))))))))))))))))))))))))))))))))))))))))))))))))))))))))))))))))))))))))))))))))))))))))))))))))))))))))))))))))))))))))))))))))))))))))))))))))))))))))))))))))))))))))))))))))))))))))))))))))))))))))))))))))))))))))))))))))))))))))))))))))))))))))))))))))))))))))))))))))))))))))))))))))))))))))))))))))))))))))))))))))))))))))))))))))))))))))
(check-sat)
